(declare-const X String)
; Agent\s+Server\s+www\x2Einternet-optimizer\x2Ecom
(assert (str.in_re X (re.++ (str.to_re "Agent") (re.+ (re.union (str.to_re " ") (str.to_re "\u{9}") (str.to_re "\u{a}") (str.to_re "\u{c}") (str.to_re "\u{d}"))) (str.to_re "Server") (re.+ (re.union (str.to_re " ") (str.to_re "\u{9}") (str.to_re "\u{a}") (str.to_re "\u{c}") (str.to_re "\u{d}"))) (str.to_re "www.internet-optimizer.com\u{a}"))))
; sponsor2\.ucmore\.com\s+informationHost\x3A\x2Fezsb
(assert (str.in_re X (re.++ (str.to_re "sponsor2.ucmore.com") (re.+ (re.union (str.to_re " ") (str.to_re "\u{9}") (str.to_re "\u{a}") (str.to_re "\u{c}") (str.to_re "\u{d}"))) (str.to_re "informationHost:/ezsb\u{a}"))))
; ^([0-7])*$
(assert (str.in_re X (re.++ (re.* (re.range "0" "7")) (str.to_re "\u{a}"))))
; /filename\s*=\s*[^\r\n]*?\x2epcx[\x22\x27\x3b\s\r\n]/i
(assert (str.in_re X (re.++ (str.to_re "/filename") (re.* (re.union (str.to_re " ") (str.to_re "\u{9}") (str.to_re "\u{a}") (str.to_re "\u{c}") (str.to_re "\u{d}"))) (str.to_re "=") (re.* (re.union (str.to_re " ") (str.to_re "\u{9}") (str.to_re "\u{a}") (str.to_re "\u{c}") (str.to_re "\u{d}"))) (re.* (re.union (str.to_re "\u{d}") (str.to_re "\u{a}"))) (str.to_re ".pcx") (re.union (str.to_re "\u{22}") (str.to_re "'") (str.to_re ";") (str.to_re "\u{d}") (str.to_re "\u{a}") (str.to_re " ") (str.to_re "\u{9}") (str.to_re "\u{a}") (str.to_re "\u{c}") (str.to_re "\u{d}")) (str.to_re "/i\u{a}"))))
(check-sat)

(exit)
